##TITLE= para-chloroaniline
##JCAMP-DX= 4.24   $$ JSpecView 
##DATA TYPE= INFRARED SPECTRUM
##ORIGIN= Chem. Dep't, UWI, JAMAICA
##OWNER= public domain
##DATE= 00/06/08
##TIME= 14:33:00
##SPECTROMETER/DATA SYSTEM= PERKIN-ELMER 1000 FT-IR
##INSTRUMENT PARAMETERS=
  X: 4000.00,400.00 cm-1; 16 scans; mode ratio; resol 2.00 cm-1; apod strong
##DATA PROCESSING=
##MOLFORM= C6H6ClN
##MW=127.57
##CASREGISTRYNO= 106-47-8
##MP= 67
##BP= 232
##STATE= solid
##RESOLUTION=   2.000000    
##DELTAX=  -2.000002    
##XUNITS= 1/CM
##YUNITS= TRANSMITTANCE
##XFACTOR= 3.6E-3
##YFACTOR= 8.11943557E-7
##FIRSTX= 400
##FIRSTY= 0.70231256
##LASTX= 4000
##NPOINTS= 1801
##XYDATA= (X++(Y..Y))
111111H64977O1013L6897K0614j8737l4297J5668O6104L357p0833N4984N5309A059641
118333A082205J914j1481p437K924o137p907J986n668J6499R675j7943k5632j4369A027979
126667A037294J0000L213k310r387j3358j6138l754K996k346q268m260o50l718I82743
135000I63103j5632l105j2997k8484k8377k7582m7583q6682j24048j21773l5308E66483
142222H06130J64808O9533L4080J0037j805p907m837o066l104K671m476o210k888A048088
150556A052276L791K130r134n524M549Q773O50p654o209o824m151j408l935M909A039713
159444A037727o787N776N524j011j877l286n018j444j300n018k491J950N018o535A014946
168333A018737j08n524j300n379j1589j1877j1156j5055j6282j6499j5524j8556H53063
176111G94505p5237p4154m8703J2672J31557K18203J44663M4694P076l429o860A138994
183333A126503j1806o354K744q159j0723R03k599l755K130J480O86l610o823m621A074551
192222A071049j2852j8593k0542N090K7258J7726K924M34J588l610m585J011K924A072060
200556A070941j480k672R03O607L610j011n271j697J805J553m044m368M729N705A077584
209444A080617L61J335j444l502r02k058l033j010m369l466k888m69L827K094A059533
218333A056067m007p293p148q557q375r098r242j2383j7763k7329l5706m4478H03459
226111G14611j24120j37659r1664r675N2890L6535l3972o1482j4008P6357J61413G46994
233333H78191Q2638N1301L0868J9206J2781P328P149O173K383J950M223K094J697A111231
241667A115492J263K455J264j878M70L827r03m549m946j841K058J733J841L61A115853
250556A116430j877j480M151K672J047%L25l935m044j733m946j5776q268J1011A105455
259444A103072k996N271L466r39p94j264r39j263j264j08M69r02k636l61m69k383A094011
269444A093902j119j624l719l646l177j228m69j011k130j372k924m802p726j1986A027438
278333I87075n9171j7655N0977N6103K3250O715r75k671m33q67p94j841J299J011A041807
287222A040038o86k852r75j769k816n813q339j1337n595P003J3828R567K527k419A025885
296111A021878p798p545k058j408q629j2022j6787k4550n4551j33506j87877l6897F20564
303889G34756K00187J13470R784o137p835q917j1372j7185k4116k7005j9351k166I47038
311667I59782O354O896J4477K3538K1301J2636M332M33j119l971l755o679o029A026788
320000A027113j661j624j408k167l682k491m657p618j0903j6174k2744l3575q8307F89556
328333F21864K4333J59933K00188O1699J119n704m477n343m765o391m187l177A032131
336111A028954j083q66k203k707j950l032l250l574n271m621k996m585m333k996I82960
345000I81913l502n055o065p112q917j0289j0939j3033j5344j6390j7582j7402H28694
352778G99235l2095l2204l4261l7474m2926m6716n6573p5093o9822j8412N5453E55219
360000G61038J62028Q3252L7799J6535N921%m585l899l249r75j589o859q701o137A025452
368889A023178J083Q66L25J769J733j300J09J408o50k058l177n090l575k166j299A010831
378333A009423l863N41J589p22j950k238k924k564l502p653r206j878M188K238I81479
387222I79783n777l574j769Q30R39k635k491j264l033m043l935k888q232n343I33102
396111I27904m549p762j1914r928j3791k7474j3250O86J1011J2022Q051L791l97H71295
404444H67288j9676j4513q051q665k0506k0795j4405q448q989j7402l0903l3575F06159
412222E37853o7547o5057j06718j13759k9496K2203K8738k2528O0147J35817J58092H48550
419444I45485L7800L1661J7293J517L429r855q376q557j516M766R856N126j299A027654
427778A022311j8268j1552j0289l900q917j0542q484o607P943j444J227J228l899I44475
436111I31369j7906j3069j9640j3250k924q267j0615q520j0181j1733j2997j6932G58836
443889G25333l4189l6391m7042n5814o7583q1845p8522o0075l9821n776M1915C32936
451111D80487J29499Q6032P6284M1843L6247M1662L1301J0686J3611J2635J6427I99350
458333A010289J1048J5487L61N163N415K744k202P58M224j08k563M909K564p95A055634
467222A056500O86j2419J444J986L538M765R03l322J336k563K563L25j011J553A055164
476111A052746L25m549m297L647K16j877k17m332k744k202n885M369K16j660k275A033214
485556A034081m044n126R74R03n560q66R75o50L465M477J841l25J120L068K491A038269
495000A036824%k274j877N41p58k202q67l25J408n41q67l25j516k419k707j733A019929
505000A018845j841l25J09j09K058j08q67J083J517o50j950m33k816k816J08n41A012239
515000A012672J08j408l790l105q67r38k275p256p762p401j0687j5488j6751l574I47038
523889I71479J9423J1336O643L358Q66K17q67q66N41n41j192j949j264o49l25A004585
533333A001264k17J516K455J300j408q67K17l25q66Q66Q67j083r39j733p58N41A000830
543333I99242O14P58K16K17o50k347j371j517j480n41j09%L25m33k238j806J084I90794
553889I89639j156m33o50j697j155q66j156J09P58N05Q67L25R38R39M33n41J08I86859
564444I86967l97j300j80m34j371j09N06%r39j047L97k89q66p22L97J083J08o49I80433
575556I80216r75j155k89J08p58j372n05j697l466j155K17o14p58j81P2M34J660I70938
586111I72309J156M33N05q30j372q30L25J08N05Q31K16%o13j372%L25l25K16%I70757
597778I69385j372n05j08K16J81o14p22%K89j336j155l25q31j444%J336P58O14I64367
608889I64042L25L25P2%n05l25J047J08j047j047j80o50j228m33p22j264j08M33I59240
620000I59349j81j08r39q30K16m33j155o14Q31k89j264K17Q30N06J263N06j553I55197
630556I55919p2j155r39q31j119j372p94n41j553p2J841n05k672q30K89j842m296I37182
641111I35052k455P22J408J119J08p94j119k166k239k021J08j625k852O14r02I21044
650556I23571M152J011J841K130j08m766m476j733l213O86J841J805J516R03J733I28012
660000I29456L357K853J841J516K383K89o14j625o13P94n06j841j08j228j119I35666
669444I36893k17k16l97j517j08J625j09j516j119p22J08P94P22L25l25j841%I33933
680000I34546K89L97J769J517o14j119j553n05J047O86%o86o14O14O14j553r02I34330
690556I34835k89o13l25j81q30o14Q30O86r02r03J81l97j228Q31j09j119o14j08I29961
701667I30647k89p22j408j841j119o14N06n06j011j010r03L25j08j408k239o13I16279
711667I13571j589K89K89j408p2J083J805K708K346J517R02J517K88j805j516I17903
721111I14762l213j191k89l25K311L826J300N06J010n05n78k16j011j914r02J119I15195
731111I13788n06j300j516j08o86N05K275K238P94J09j914j227j81j08j08J08I11657
741111I12380K093K311P22J300J408k89o14p94j841j300O14O86o86j228m69R02I15701
751111I14871k89p22J011n06j697R03k17j805j300k88%j011L97j191%K021j08I08553
761667I08264j08N05J805l97o14j80o14P94J011p22j986j408n77l97K88o85Q66I07253
772222I07072j408o13N05J08P95K16p22n77q31r74k094j300O86J191J517J80j697I01657
782778I01585j08K88j191r03k88r75p94j589j119%k455l538k888m116m874m404H69057
792778H68082J444J841L322L429K347K744O86l97J083L97j09j08j80n06p94k238H75952
802778H71945R75K455M69p58j553K89J661p94n78n78k816m476l755k816m621k960H51727
812778H52305J805L249K600K708K816K491L104L430M080R74j660J08K89n06l61H77216
822222H77505n78j769p2J552K816J877j263r75k89J661K419O14J80P94N06%L61H85664
832778H85555J769N78k89n77n06K17%j08k17n78j372j949o86j372l538r75K89H76638
843333H75663k88L104L250R74q66j877j264r75k346l033p2K996M874K563J09k89H81620
853333H81223n77J191J047k058j552m70j011m69J08j660k925k88Q66N78O86L97H75375
863333H75375j553p94j08j444j264J444K058m69j769j445o86k16L97J661%j264H69057
873333H67901J156k89n78R39K16j732p95J81K89n78j047j155j733n78o86k599H57359
883333H56313j625n78k094j913r75j697k202k094l61M730P076L863J155P2L97H61620
892778H61800J81o50j09j732n78R75%K88o85k131%L98j336j372q30j09j08j986H50753
903889H50572q66j228n05J733j228l249l97N78r39j08j408k275r75j227q30q67H35842
913889H36131J09j914j480q67j407k167j480k89J81j408k708k419j588q31l61H16275
923333H15445j481l032k491j661j950j913k744l141k707k925l718l069l249o354G68836
932222G64035n921o679r856j2311j2708j4369j8231k4117l0651l9243n0471o0038D24817
940000D13878P2421J40727J32424P8559L5308J1661K238o86l718n668n380l863H65483
947778H62558n199m873k311k960o824o606l105P2k238m766l935k491m549m982H02917
956667G98332l574p798r640o715q592j1264j2455j4152j7943k1806k5488l3792E87097
964444E52547j4946K5813O8089Q4877P8378N6753L3250J8124J0289M729L141J300I20827
972222I17687j084j732l502k311o86j119k89o14j299r03p94l97k563j914O14%H99202
982222I01874j09K89j083j191n06l97L25P94P95J769L25J80K89j083k491l755H98300
992222I04076K996L98K88J192J119K311l98q303R75N415J80k707k166J372M007I13860
1001667I12560k816j083J986J408N05j08j480p23K311K708J227q339k094L610L791I16170
1011111I17109k17J625K022k744l105k635L538J010r02N018P22p22K347K419l755I15268
1020556I22127p94q953K815M730M549K238j08p22n957j625J733R03K707J09l430I21441
1030000I22560k16k636k310J913L755K094j697l646p22p3K419L430j228o967k491I15195
1039444I14979J119m043L213k203R03L935J516K131p23l97K311k311q30K527j408I21225
1048889I21622k89j805j336J336J408K419K021J517J08j841n343K021J625m874I19708
1057778I17795J011O13L322L538j697K419n451l358L755O86J227J516J228p22m152I17614
1067222I17903L97k16K130J624l321j2058M693L610K239K599K17k311N054j949I06170
1076111I08661M404L719J119p22L033j408j011L646q30k708K311M043o86k021j09I19095
1085556I19419L719M874P22j444n06j516k89K636j733p94J299J011O14j08j192I25485
1095000I25990q30N05P22j299R02K89L25J516p22j08J227j011J842K346j949j914I29023
1105000I29961R03Q30n41o86J011J08j228j335o86I28734
1111111I28914  $$checkpoint
##END=