##TITLE= 1-vinylpyrrolidin-2-one
##JCAMP-DX= 5.01 $$converted from ppm to Hz
##DATA TYPE= NMR SPECTRUM
##DATA CLASS= XYDATA
##ORIGIN= PSLC
##OWNER= public domain
##DATE= 00/07/04
##TIME= 15:26:48
##LONGDATE= 2000/07/04 15:26:48 $$ export date from JSpecView
##SPECTROMETER/DATA SYSTEM= TECMAG APOLLO NTNMR
##INSTRUMENTAL PARAMETERS= ^13C
##.SOLVENT NAME= CDCl3
##.OBSERVE NUCLEUS= ^13C
##.OBSERVE FREQUENCY= 50.189967
##MOLFORM= C9H9NO
##CAS REGISTRY NO= 88-12-0
##XUNITS= HZ
##YUNITS= ARBITRARY UNITS
##XFACTOR= 1.07855763E-2
##YFACTOR= 4.89176571E-2
##FIRSTX= -660.40536896
##FIRSTY= 259.88549827
##LASTX= 10125.17089844
##NPOINTS= 13785
##XYDATA= (X++(Y..Y))
-61230E313j0171k499N150k769J1978K96q876J222M422K69j1392J2454l241K188G23
-60070E370k481j3521P463l568K212J0157m888N25N804j1332O678l640j257N95B579
-58909c363J579M161k788J778l387j849K846K346j2014J0065k040Q058l395j991A25
-57748a3101J0412l763M012m521J1485q725O929k191j657J0373m191o597j764a0162
-56660a005N002K49j199k819k035J1355k240j3033J1420o795J954k132J0047o539a238
-55499E094l644m614L393k693o622R11J3315J967o533k277O158l780J822K232f163
-54338G51j0374K1454o269j481j166k005q529Q591p861M811M812o08M190q498G074
-53178A292q176n890Q291j780P558M10o097K132K296k745o452L423L934R02J0187D946
-51944D211o703P23R095j0218P043M992j0548O260m249P11k955n035J1847K00b218
-50784c328Q439k921j171k961P997j2143Q595l027N615J775o765n481j004M148a265
-49623d988M823q447J6976r072p208J0843m450o276J3917j1138J3132q831N995d45
-48535a81k816Q394m311k979j27J788K322n084J674Q382n803q971P010l306k873f084
-47301g902J0584q545P286L015l414k733l495K034Q048q351N730j4293J4890K162G580
-46140B540L979l191l290j023N820l871K707l26q104N536k228M797J607q175j289B172
-44907f467O445k826L030o705J5331p064l704m2P596p25l96l784p67k992k318i023
-43674a254m614K622N131o298O296R786j1505q095K936O612l226L05J158l866g37
-42513C557q448N631L122P608j3113P694n993l659J6320p851j777n525l35p406a9
-41352D115r912N829r406K1295r022J948L048M063l134l395M164j1775N873j90a055
-40192F841l542n892m832R856q591O126K246j0508M882j270K023M332q189R961a045
-39031B45n552J2350o934J0634q785n500J0746r188j171m703j560J2723q917M862C853
-37870d468J1921q41N1p967P996r998L246l795J785N398o190M296K189m197M013C639
-36637f431O313L482j0085Q797K872l844K54k360L422L548L390j770q271O549A782
-35476A682N436j4223M684l008Q142j1438P860K730M048r957O929M007j1622Q48a2
-34315f011J5075o128o399O663k436J032j867l5P876r691j0268R904O179K178D193
-33154C828n709N280j4340J3898j032m3J181p907n306J0238P006r688M734M00g282
-31994h099J1099O649r963J1246n994k609P914o310m846l298R320n796M009k967D861
-30833B569l121m911l687M912J286R810r016J207J3246j0461k896O36j283L692a386
-29672a746Q051l831J962q254N77K033Q859l299n638O144j471l801j761L282l300A1870
-28439e894K045O002m013O694n956k714J0813l790j0538J978K538l62O1L290N780i054
-27205b066o24q70K899o666O096P177p155N411K397M059r412N378j4047K303Q832E376
-25972E853p03j0505P694m198m769q80k504Q213m124J3131k504r176O292j183b723
-24811D787l804n725M54j400J1615k175k815l681m208Q519n017J3854j0624k643H479
-23651f402R026j072j344M181p796q01P258n031q77J330k6R589r058Q547k560b814
-22417D064q32k29j1514N309J2130p924o249l847N44J0647l143O605J167n051c106
-21257a53J0809j4050J388J0046k200o000L539L210N425j2683J130r804J1328B261
-20168A4283j4814O678p401o377R583J025o101o22K868n755J2441O70l793O86f217
-19008E151j2163J1999j3723J2170o257L202L29l481q411K916J028L800k20Q15g150
-17847h123N148J1097j3234k897J4950k482j800o113L742J1523p945j0368O844A996
-16759A4015q712p110K486o08K732J085M975l478p084K078k112p93P84Q1j0942a2642
-15525f982O357J27j321Q588j4498Q077O12n361L463K89O237j0783j387L185M301A4
-14292A405m769Q354n728O804j857M035k789q814J0427q142n563J6963r636M501a566
-13131D718l700p149J6645j0655o082m046N693J0446n815n186O751n050J0703c696
-12043e821j888J0863q49o887o438J0937M117j2383K710R290K413J192k233o182F344
-10882C017r011J0803n527J454o18K330l591K888K889j0402N534R125l257j0314c135
-9721B26J576l076N875l298m855k059K049R91k449J261n25K775M509K589j2465C835
-8488b003l995J597K498M245N455p566P032m997o09R13j5045J5655J9m485O743B226
-7255a467j45K613n296m969m6J4319j894m180P059j3977J516q36J0004m708O160h942
-6021H016k095l486k21o987P918M345j0621N198k331M458K732L661j6335O309g844
-4861F976j0772R532k300q610N725j75K469r026N615N983n491q851R174K77J1739e3
-3627b17j1432J2947O239p311K07N223p466M481J1q48N192j3221M273p0L312A144
-2394A117m480O635M458q626l849P986k412q809Q860n978O757n254J1354k831B962
-1233B975Q19P149j1388J9589L6989n0424r888k608L878L545M482j3383N484D248
-145c12j637n15O363l098p35J215j4241k3J4891m315l457J674P870p477j276C439
1088G195l346r810R186l88L951K926r477O977j3665J654Q28J4372j2911j975f237
2249A0567o658n629l598M098J7203j4760L804m692J662k131M738K52j4303R008d650
3410f648M37K904K99J2447j6259L276o1j0015Q667J0705l492l457Q48l565O444A5674
4643A0025j5088L178J311N06K658j4508R339k468J4175q364L921q584P940k383C840
5804C504M479o426k684J970l023K179l784n74R318l988K779p036J091q297Q695G252
7037G491m229J764q050L139n63N994j1650J2610K559j9609J7299q491O408m710a576
8198A232M961R97l350p013Q126n338O881K322n319r60k105m824O784r843P172A031
9431e072Q364o21j0734M476M545P81o960J976L099q001J1676j313p552j051D094
10592G525L53j5301O924k300M977j4686Q207P650J718p42l026m104L790p72r880a436
11825b140K016n329L219p070J0048l779J4341j4913L166M947N513j6625Q239A442
12914D38J3q821J0633J1456j0353L282k464n903L886j86n316K002O14k28P285A5509
14147D581k969n477Q749k051k974r542N689o866L32M677J1419j740n546o365D858
15308A335R05P71K646j959m802J78M48Q658o773K768l194j0688R311n161J2472a681
16541f80j244N119p703k556J5459l838mq506P446r687p855J2081K434J5396j9915d339
17774A932O445j0179K507Q087m452m323j908K733O02M086J547q698j4501J7655g14
18935H525n61j0066l799j311J659j643k575J9282r482R1J0335j0488J224N6M074G274
20168a2576O863O954j1392P840J710J384l246p3m60R673R10j2493K790N991m355g469
21402g773R506j2763J0315M225K239l389p203M314N574m899R31N229l994P70a164
22562d485M614L638L681q217j341p802J1250k213m018P365o710L582R335j6171e225
23723b125k932j150l331P455R770q002O599j0229n523R661l639P475L149o209C988
24884C858k797P025j0818R78j206k070L564P49r58j703K118l681J0313n061o909H856
26117E247p501K037J830J385J885r814J118N869K123L133m409n931n30K782Q397F007
27351I715r588l336Q588k510L160p064P420o398N592N900p634l787K318k286A954
28511e61J523O270l16k750r334J0616k798o046q259R739k677J557q56J2830p018a821
29745c188m24n59O670O802l629P802j4607n87J366j146M721L78k413k021k531C199
30978e640M521j716L830l210M180k36M87N24j2168Q735M191j200l648n537M243d333
32211b516n320K755J177N177M988m380j647M774l121k727L703M61J716n500j727c851
33445b10p471Q752P379n948q324Q23L868J0652j372j1634J739N77J584N30m574A0937
34678D311L21q112J3525p583n375n31L986Q26k808M043p618P327j855m50O143f587
35911c024O197j4120P824j366N91j409O683J022r624O991J558K21j1509q35J2959e156
37145G246m489l349k046j567O993j762Q412j0741M403n610l401L521r435J0656e649
38305G983j2861M305o355l854J1822n384Q091O24r86Q454r162n897l357M357a099
39466c65k691J4166j5183J416K781m56k113Q767N65p695l164o883Q740o338L455i504
40699a0003P418N339n67Q618o182L762n38j8952J5451R585q28j1592k484j377a1032
41860a3895J7042L928r773M849n838J2214l53n067k761P05o065j825M274l028B888
43021I946k693l125m10n180m750M956k400N36j984Q079K227j2056J0313n137c018
44182d151J546q00m955J2002o69p438L143l285M069L664p435N903K651K675K61B670
45415C409N800n773m733N082j875K40m343p254K874J727k221J478J0421J109C030
46576E086K606o213r40m45L198M882n570P9N305m816n538j371K266J1504p582f040
47809A909L472O17L944j0013k621P599r622N421r89K571l903N184j0932J0954A726
48970A825J447j469j1327Q746L407Q267p864l96L41o973M946M15o217M03K174C023
50203c704q09k531o144J0087K250n881P912M638n44j8688Q26J6505k036P57r590h122
51436B591l618M67k750j137J317Q136k267L696M070j1165J159o592k855J6183A3796
52597e903N440l962N159l17j121J0898j8739J2556j0013J5719k0185R836m956D621
53685B978n493j859M878K896q614k360J5797o929k354O106m917r60l240J4738i609
54846h618J7794j4361J0452j0476K2215j5035P289m061r322J5381r024j823k89b229
55934A650o212J582Q131Q87r262M231M744n6j2103J2104j052j0070R356j4699I980
57095g976N981J0500j909n88J135K344j59j0040j948k241P416n139m036N871B030
58256f186L893J693k298J540O99L409L1q178J4350j3732J151O446O83o290n76E961
59489I00M334m896L721l285k701k995J0395m359M901p63r137Q023j0327O055c991
60650a069J662J030j975J278o92m757Q263n602l562J3677O60j2767M411K033B31
61811i545Q110J180Q077p371J02L910l658K386J0486q951q233P924l881m532f630
62972A5209j1372l993j609N176J330j147m026M542n740j608Q487q958k636L852B683
64132c543L239p15k701j988K326J627j031R551j0766K344j066k593j619P452H396
65293A0587p421j895p192J136J0150m118m954K720M684N92N81j5988J6350j727b573
66454h745J5433j0298N430p447J0683K522r075M367J228p275J792N197K682o950H639
67615A0767j3426J733l438P123r986n000J6140L022q057l058Q14K889o973J6507E322
68775B914j418L197M134o658r977Q628k910Q591J41j0365K504m764k058O816C401
69936h893J1866L53k740j764P597j3062M199M247J191r151Q657m035Q580k541a1928
71097A0869j9159J1817O15m793K955q39L131k474k44Q26n233M094N529m922M218A5118
72330C053l056J1508j8834R552o704j618P407k458J253R279L100r040P82j4428e621
73491b865R259j4708J5585j0985J2590j7481J0912j345K862l682j638J854N576e152
74579D00J0527r106n445L709k696o112J6476j0563K679Q045j6594m614J3065A753
75667c666N853r869O074R318r498M287P292k449q498o037P371j624K536Q84M498d354
76901I280m874l051m798N244L393o166J0230q200J667k893P008n824J305N971B039
78062a14J7259r840m7J648J460q250Q888l690J414m897j229P157P66j132j392A7190
79295A5217R219K2618J8117M4972Q8869P79158q86729o0519l0163L884Q81P294C092
80310B129m628j0377J1847N130m2l80j3186l14J1133n440R001p536o063J2215B291
81471a539J181O837q169k09K631N01l122P783j300l79J385l579Q891r649l781h845
82705a0621P939R168j844O22n543j256j3289J2821J4253j1912p20N375n298Q097f97
83865h7L951q2o764M675l952j1336J6003l056k750n142k337P521o739J3208p479a339
85099c35mJ526m647L056m173R594j7017P000R041p574l164P517j31o479K0064F737
86332f612R926K559q907o120J1018J313k078J392J0780o039o320n12p57J1629B114
87493a2648P476J0322K920j507q352j3022J0701O646j850L114n132j383O153F38
88581G307q064p625J0452M384o585m445N427O75r047P453N306k739j7849L906d652
89742E59J1297q574j448r01J026P412j2686N433K909r28J707r442L90P73p870A435
90975f890L428J0935r960J0531p047J501N625j3897R084r27J824P915q989j824F580
92136a0143Q503K055p60O711O88j6249J2694J198m896M527l47j309j1975O774a286
93297B746k73J757J655M81m806L741m294n996m174J5912k81M58l403j468o324b038
94530b447J1292j6890Q638k374K552m784n012J0451p554J4024q652j1498Q993c089
95618B187m03q010Q970k318o160o172N492L047L190m456N623O555j5339N19J0401B266
96851d613M90o733L20O010k72N195k850J1261j51k186l427j0794J5344k679j415H41
98085C384o111K526M963k990K3L283j68o028l57P145K002n086j173J535N535c656
99318D235j104n968J764K634K847q807J942J209N312o161L434L83p629M115R996f234
100551D977P686o528o467q978J0414n941M71o19m346J0280m998m655J2590M184h439
101712E651j459p375M859o012R811j1132L324J0377r831j989K194m916J990k838i22
102873E35J1242m165q824R046l907J214j2766J5024p714N1r269N190N20L984O557D914
104106a853j941j779J8469o008K676l407r976R964o306N159o739P551ol093j150e051
105340a1453O646R206n787J3403j6029J453k779P918R123j4817J3753n094k368F358
106428a1498J723Q075m25P348q320J4425o323j0208M023k092K548q218M700N386c115
107588A0158p781M500j1074l860J2312j653j38j0928J4056j4273N038j172N862C457
108677c407m662Q919J694n860K76j710J2407j0307j295k70j200N336m394P393D099
109837E638m428R393j3565K990k803J335j654R051L86j2040R429J281J578j0229B192
110998c624M83k832M146J421j585n930J0930m873K646k270q086Q386p732J0696C415
112159B786k171l50L819p643P792k941K953m396l624J3179j3042P868r36n206a0682
113320b476J0535r000o130J1126j3884J2564M122j628j664j5007Q450K82j915i424
114408g249J7346q985j533j0607N834Q861l949N14K322l286m706K032k060J0217a650
115569a852O02M830o180O721q136R984j3474P461m916L841M772r892p57J324K143c397
116802b089k8m475J2811K450p566j0487J9411q663Kj2300J1473J422m797r657D144
117963e724L458P807P408k0326O121l657K662r01J995O268p494k98Q33O2L235A13
119196E924M943p072j182l759k160J0196K222j668l421q559L594R870o535l03D076
120357B44o627o232N679M733K649O7J4010j0060Q286k0787O909P97J650J114n162A976
121590E061j5295P786l576n040P977M519K990o604N068j0541M582N712P00p114E254
122751f9J705m695m989J3976K720r299K47j339K906m970k251K478O194r912P449I256
123984D252n606P136j278j364j450O22q575o165R167n07O341n051p16K844n147H91
125218C927M914k508j1252R240N438q875R85k866N595J169j0296K0531j6381j676a0185
126378D874k871l593P623m773o882R337k531l024J7329j7255l672P096N658j0156a34
127539c667N503R867q473q765k093R793k378L472L350L201p129N158j2634l001A822
128700E376o085J1870m591q136P116J869n660m405M066l058L852L27o207N007A987
129861e371l215J594J0395J601o793o32N399j0752J0095R73r761O449r131L619i07
131021b388n681J7723q470l735K096P476O830n696j4872J4368o285l021L086p357I79
132182H814n036k850J0971j6672L514r266P413J2611j5104J625O501j0215P209B244
133270G47n020J1519j0227N123k345K33L552j4005Q412j517l996J729J0396R360a978
134431D895j3880N002R675j115m785j609P450j0726Q688q060J3260m45j3861o103A6527
135592G51O370p131q221J22J0438L199j1988q05P501o75m643M126j1976K0742C349
136753c033J1882q10j3563O496j953j0916M977K314K597P506j1983Q590K737L483D287
137913I458n917o326n726R26P290P788M544p640j291J1121o882M502j3241J420b359
139074E642l39p206O136n495K35J727m672K529N95j104J519P887r258J0122j4445E897
140308A373o895N449l325J472k013M311n536q564J3156O458j3768J0303L706r615H38
141468C973r120J2218r349J675n323R721p480Q161j22p830r03J1310K784K013E914
142629G076L170k1389Q863Q757j986N61p394n34J4095p451o910L820O451j2065A1250
143790A6922j4923O383k126k059K602J1710n563J6937J1911K5819M4934O0908D33956
144806D35512l38256o5195k8875K891K019J436n713j841l275J0570n007O552j1232c442
145894e274M784L453k109J1048j2601l765J3858j7814k005K959J3102r518l831g056
146982C615l365j3672J4852l515J044o35l6m675N129N408M258j972r565K728j827E27
148215D81o532o382J3864l862N527o239M485J2195j8818N295r009P605q047N176i74
149376H294L394j414n262j3423R315P193p521m141p390J1066r267J8360j5772e075
150464D127N37P685j1197K315Q413k053j0766j073J697Q350p395L727O566j4212b261
151625A213l205m198R34N569m777J3650j8395J7469j3816L743n181J7125j9205C490
152713B552o789M843k039L765J1315r679q72O865r847j2320P160L182M838m864D353
153874A51o22M391m636Q18M391j0775M396J0124r799K059K345j138l263N33l921A951
155107H952q777k537Q948p302O919j1194J505P730k021L304Q863j7164J122J638f792
156268c005K451J351m923J801N099m449m58j919l207l362j947J9956M783j6208I531
157429A338k388k127q92Q833j1812Q650Q60j1370n706J2517M078j449r700K2910f60
158590d6M653l536N487j4232O142j686o44N445j634o516k274l10N661j950j222h069
159823H280o70j478J084m94R70o413j5769R68J0855R023l822k377k748L430J501E971
161056b718N771j2782O334J2452j7876K287r33J0441q836M336N126l697J14J0301A146
162217D660j352j281l466K038K450o952P60q96m177O245K440j1827J3322j208A533
163378F093q076k534L513K066j05J162l160l086j190J0152j0552j584R321k532H23
164539B314J087M039p521N056k358q585M926n632O932J0820j7042R093K259L179G178
165699B414q651M178l89M016J0287l839j4983J2482l72n902L940O012j1733j66f365
166860D168P001l313j0769K29l189j572K429m43n301J7827l089q25o631M850q105d576
168093h714o31N627J984J587N859j4419k048J1518Q049j0781P436l539N733p049d535
169254C862q999p27o398P228Q640j4611J3619p800M036J649P938j785j5767J1684d851
170415a510L588l037j04j614J0915j717k818p427K379O053p627N215q260J2213b859
171576A1941j2330p371Q801rr033L843p579O367J0096j0880P70j467o185M856F435
172736e469R100m186o224M519O66n272Q503J348r014O407r40k389P42J3794j5651c007
173970f179O852l830J4086q394J614j3961K4596q438l32j1546R766n435l46L69E774
175131a085L009O82k462q802M474N44O777m046Q559o921l05K514q70q035m40K066B67
176436b053j948l74R907k044r935M867J007L990l768o668M639M658P162M354k0740e810
177670A007k520m00m55J357J099J1857n076q609N89l020Q240P34j932O23l226A446
178903c887j842j667M218Q553j938j2409P596N991N13k576j0287J3220M322j2403h088
180064D457l240j549M071j419K401l506J3161j0504r150K16J0101J781k019j941F740
181225F948j1537N720K104j616K146j665j0489J0259N748j1211k121M216J173f46
182313c326Q261o464N476j733l998o103J2484j546j0536J7083j8941J2645j2706C221
183401i159m424M703J0193J461O015O42o20o974O680j0445l295K386k30N015q04B461
184634a617l834m636J7585j8643J3286p162k412J3940n553O480K889j1767j342f860
185723i641R353K35n514J4359n031M741q839M560M159k719Q041j4803J1069j6869b216
186883b499m957J0280q869N82Q940J965j9645K1156j0260J2530k397L96j329k935F663
188044a955K915j0041J1424j900R24K741q798J569k040o11n216O881m227J3393a3404
189205c481L294J228j25O659o534N938p739j778R021j1330O776O336p640N090a510
190366C66M445j515k892J5130j5679n341M552O104m243l970J6440r559m337m595g738
191526b027l418O657L118O086j603j5186Q44J977N25P795j0310j2P662M848p080h256
192760g96K434r23J892l879m050j727O826J304M143r859R140j1161J7662p525C034
193920F441o027J6379q650m751o14p452L430k391k182J1434j5018O985O471K613c386
195081C805N068p860o991P460J685l064m175R19J505l520K785K131k359l831L833D501
196315h446O219q348P937Q860o628L961k939j132O268j0798N030o42L67O725K207E813
197548B495Q518r052m265O494n284O25P074k052Q998j3080k291k627L646J179c721
198709D814K996j4429K643J0252j5498L277M931M994j4595n74K0560q246q071e884
199797D93l110P344R46j707l532O6n529N463N322j1252q018J0978k48o3Q627l126G05
201103F82O333q773J5962j2319M286j4893J2582o239L106m668o998L453J981l928A681
202263F788r686J667K675K945J864N594j0175K095m752R218r759m15M246l209c051
203424g846K80K92J0367k02k160L440Q719j9145L474n780P743k362j617M208K776a049
204658d399Q478M34N995k986l60j946R60N784O585j2129Q669j0784M170P906J1830B7315
205891C8678L8890P1562J04885M34308n18375j14833l3034l813j5917J5406n449E549
206834a67m823p387N354J0547j376L13n708P060p520M738L880q774J4231K512B063
207995c312K665r507J0841p205R975m41L069j7407J6299l891N351r581K0901j6653A72
209156B491k601n924k2q810L867K777L986J3840j0314m769p67P280P51p032J3807D255
210389C180l713o215J38M359n676J2041j5919J4014m636J422j843o430L929K213A0384
211550A223o581o48L298j0315J3798O296o913n150J716R925m113n118J165R108c765
212710F779j1907k328p01M561N08l556n100R335J2140j4645Q617O088j635q133c956
213871i601J2685l771O805J768j5409J7889j0679M939p348l170p294J3639K329c620
214959B609n654J585N609j0576J886j0247J1245O884p456L393p82k783O583r639g240
216120B8j3269K1728j2727k058o791N952k48o535M818p13K415J461k13M679N29a0026
217353a018P114q804O522l857k754R060p311K495M290p161l823J133N127l438a0296
218514g033j011R342P248r337J0808j2072K994r218O208K263L029k402p876Q240A1096
219675G803r665K446J196p820m732J3804k980o15L054L338O23L78j0262N061m951A603
220908B965p195M707O246o863l861K626J329N008m799m151M246k60P25L848J096G05
222142a594n611K123M616n16Q85K293o112K592j522J1190j1487M703K802m95j1786c20
223375g529J3456q511k152L958k998J0169L583j0667R728o840o269O089q080k431c130
224536f503Q342n222j1658k336Q934M954Q97K738o877R13J1791J904q958k108A3775
225696A715N764j2408M326J147q310L942m073M502M833k784l862k957J1336m591E640
226857E557l191K068p166J111K527p12r428m37J2125J818q964J6557r511o066A0299
228018A928N703j315q909Q577j269n541k639J7077q852M855n728L200o616j1059a1789
229179E182r168R120m452r79r580J4469O217j0498J521k910n336N354L839M852D549
230340f748n99J5283n69p204j0242K072N974m239k039O831J31L392m044M996o749c442
231573C131P54j497l968j0816J2169l496J3290k289p853Q182j317q975k291O613a304
232734C684j061r819Q740k055O854n603j0426J3769O371q455Q710j4347L542l417E118
233894A517L291n051O062j0429O634k031l854l747N299j0548M408M654N725j554c946
235055e407J0141j3520O290P240O01j0734j137O040n878J1313j6962J1040J0113a095
236143b87L402q490k677J5095m529n024Q143k024q605M508n175N859k669O881a762
237304g730J2337m837n381M214N082j3023J7855j1328Q404n668j073P591m837E730
238392d423Q101J1954j7361N925k047p999K670j398r82p049O122k312L001L785d629
239553b725J499j0501L509O041M16K240j7198J6386m571l110m170J1908j1968a574
240641B054m597j160O856j0578P365o562K493l828L427l48l94K983Q523n495j0323a445
241875a124j1194J5596n641J98j0527J732P946L41k593K161R411j5653J0759l00E046
243035a1941J3624j625J409n721L91O681n464l71J636R56K011P208j3581M901c441
244196h610J879K943J0112j0030J2519k187l286j410j3159J1228o027P649n845I71
245284D67q764J1653j1615J5523j0626R198j226O15q201j1441J0668n655N898g162
246373c830P034j984R598q293K247q160K397n734p233N211R020R491j0172O584a568
247533d063J2557N428j0416j1067r999J4071P719m406P265J811l627r5j118o822A7175
248694c067O210k679k909R74O344m805M51o558K652O97J3708q788m050K315k687H86
249927g461J6148j5430K549L606J62m095J0110p005k649O482m23O48k254k798d660
251088B032m222R071J430m557O956j0958n736K922l87m061m60J7008o411M371C666
252249B778j025N81o701n553N147P264n48k039j8965J5950N970k810k487L693a4730
253410a029k632n115J0486q438R16N651oJ372j311O86l620P614q465J2209j5365A4053
254643A4048p538k268J371l469l137j840n3K821k793m775O604r86j994J0262n589a666
255876g748P425l478j10P28K282K429J53r391K290N796j4716J7817j3124l97J2118g346
257110H82k075R138n469L099p138k892l362K844O4J0452L493l944k690P696j2693b900
258343e370J798P396p826k510l335n410J4045l429m401Q563l292N374p68o373g792
259504D617q689P877Q366n725j2728L462j600M922J0059p459m57R07K514J27o077D720
260737c461L347j555Q891q631M74k698O508n027o028o507J0054J992j568J897A586
261898E054l338L278r309J2798j7067P600K415L57j8681K4561j2303l867K063B456
262986e61Q502l721L52n599n883L59J2272m644M777p017M812l999m310J0893r771a16
264219a471J4796j4732j1415J0882k810O599r844k15J0098o004L760q612L797H268
265308A614K794j3268J4845j4769K711L125N76k620k355K47L077k597M030k504C894
266468g014M796q889J1123k53K628L257k506J569q491r867J5437O738j5968J6002G049
267629A640J570r514P378J0024p729o06L35k84r636L736K843K972n158Q170n866a4218
268862D15l808K540R960r906M663j965o940k433K622N478O719j0542l931L433c300
270023g53m356J7339k1726J2076N249j1851J938n086Q434o576P088r633Q337m908G543
271184B769j0765O37J0976k759p183J301O397M77K268M126j1888L955J455N09C240
272345C867L30p03q123o22M360L506L728o423j651L1358j5168r732M541J333o206a6064
273578F491k403l638j878q408J6523q057l302K252Q398K411j2610j397P576n058a0189
274739a572m319M410J728L922j0839K201N748J703n553l673N832j1474K348J2973D701
275900F417K117m028R213n747n939J300m765L302J334r36P238n477k68m084q364e378
277133A972K668k940N731j2940J6222q447N559l257j806j0638J671k512O541n263a837
278294e777M487L239l166J659j2974J3478j0560J4867r523O646r554J1857m330a3229
279382A141J539p923R618r295J15K169J1071J203j2674Q408q026r283J5677K049C371
280543c492N720O659q883J067M285l517j68n865J5026p759o329k412k100Q531D233
281703f972J6676n54Q557j8314K544p499L486m605n4J1128j1047O358q956J2694I425
282864d76n503K1347l0231J8377m541O287j0303M018m555j074R63O304k792J692d685
284025A3429k0465R419m752L610j2401J5325m241l929q25l598J0533p01j426M850c325
285186e617K722l071j0184K2868j2126J475J155O740p487r00m670P274N940n686B262
286346f380J891Q061p44L864j6050J0028r708J4362l958j4114J567J0245L030H362
287435b214N608O641l069l639k426O529m436j469O037r984L069L06L515o189k003b78
288668B495o986R474r735L121k809J3770r187M614l314p208M248J2073J318o995F074
289829i224m703Q513J0166n789l348R006m786K783J64n622j280J63p51J0444j7199F083
291062A3599k2813J5652m950m959r085J0813p169O488O47L912o074P269o441J698I57
292223a57j3030J0934o846O080p594N138R782l037k173O036r339O920q40L650E715
293384G397J534n754r318k235O51J8756k2105J1588k900L504n026J390J2116p758B557
294544c302J2683q926k405J556Q019J292m635j5078J1900j170R777m247M813k6570c796
295705F468r42m683r624N844N513p687K907K723Q269p875k995J0048j1098M403a017
296866E202j520l884P475l024q497P101n572O197l648M509k204J345j1233N35h376
298027A46N305l018J729l494O409m153p099J832o601N241P95l859J2627j95Q615d767
299260D683p40J0877j5080P745j3201j0964J6061K217Q520j2816Q68M244J483A4078
300348c735M321o372L549p258J649J3014o763L046M696p096P386j314j715q071C765
301509D962q724L097Q068k235j5124P405K361R316j4096p161P546N356p15J199c747
302670i248O862M208K134O72K068j0146Q101O082j548j1134N355j0393J4530j2755A2585
303831a946K162K988q547R139p342Q441j0111l820P10Q700j237r938K954M31R782a068
305064C802n797J5319m420j8514J4064n522n726K39J123N368P76O114L916l616a238
306225d527r31N737j405k377N232N466p369O618j4943K336J98R705N815j0142G786
307385A751k325K616k312N277J092j0801R405j5351R641O185l073j815J0886l07b634
308546I426j3802O010l69O57j126R750j4847o061J4205O104r295L540o822O591A884
309707C793o637L514j199o648J126J3225p287k563M589p860L061J2436q923o423A731
310868a269O605p184m169L297N545p919J309N863j3226R081N437J345L993m666c595
312028A664O724J741q087l039o603O981K627m836k374M574o583P01M403k977l172A145
313262f977p353J8234L048n973L07o520J052j819M502J1263m074M998q360j959A1624
314423e334R814o21J440j784k702m882M239j950O58j757N124l796l6n426P148H22
315656C01l514P501O789J039J885j0435j677m639N174r050J2686m432q743P11c447
316817e049K863J0111q605m545L649J2358j0890j671l356R164j3032M740Q694B861
317905F397j97o747J2851j6068K550M221K132o208M406n29q01l980O167j1108a185
319066b81M663o652O108n802P70J130n782L810J447N998r900L912J454l814L731A694
320299A458k675R59j5639J1218J5264p209q928J398L142L742j009N723q820j0480D485
321460c32m887N626k442J42J7558j8254m816J1359M30j1096j287J7086j3641O124B112
322620B853l862m518k50N316J247j0625P691o837Q286L338q633Q401m286O977E668
323781B560P985n531p491L550n149k485L355K215J926Q326o025l780l956o558i845
324942c70P567o953j890L037n264r57J93P162M037l001o904N775o930n279J6880b716
326175G985l858m365l255m538P877j247N392Q110j0329j5236J3090K281m273k537I953
327336A0215j4603O714P934r574Q658j0420q250Q695K55M036L309o735l971N1a364
328497e346K06j071m297J4569q837o662Q70J0306j1383J1173K542J412m466o067E938
329658b365J1602K933j3447o409Q360O000j0203K9J8298k5880N896J0100j785c327
330746C086l296L046j337n908R347L796L434j3694k589K010n952J0056j625M425a466
331907h212L890r52O758l345k756m191J0765m065L306k602J1218j5786R373O844A2480
333067a969K965J151L22n647K848l585M491j0518J1784O887p279M104j0743L649a0978
334228F82O717p421M584M606r671Q687m140j1500L726j442L688n273Q441Q791i880
335389b408l545n063P497M410J2991j9968Q739m003L492j276k268k645J684J870D160
336550a958O118m924q54o541L669R894k285L830j1867n493R450p477J3026j1301c107
337710a1046N707P384j3558L544j110J687J8583o486m662P149J0241r336p982e32
338799f642L548o564J2176J309o598J837R772q074j058L325q661J0440l712l257F120
339959f465J2599j2800R939k651j709K874k509M62q617J862N771k578L093l183A3840
341120g40M198q999K198J270L569N448J236j0003K187l43m012L829R475j2044A2582
342281C780j1893J1837j0314k205J1224j361l668m33P482j1956Q995m195m609a2200
343369d187M202L110k557o666k43L388R89O385j3697O501J0016J0960k3963j631G416
344530a586m539P227k868p857O14N147o87O403j6279J6908J1750j3443k235j534A0388
345691A1161n425q217K955K207Q407j2997J8955j8320L447J258m532J939q654f610
346779h559L805J3955q025k709L62K245O174o440J2313j2214j5K415j963L738E422
347940B348j385O049N454k1490N775p81M506k891Q110Q12m006m412P131q266N369H337
349173c851N670J346o688N802l952L811k668k837J1130j5077L775L723O617l133A0316
350334B289N042k0768M731J2533l968j4808O211R988N097j5777k082Q768K963e809
351422a1246Q645J320J200L16m83l843M066p99K964j5960P601L652K055j061j410c939
352655c608M318J6930j5199Q026j4015o853J8592r982O147q925O562L917N357E1
353743G59l696J803J802J892Q482j6726n97K075K78N565j1217J0202k961o159B338
354904A363M408J402K018k547O978j732M870j1121N641N037J082J6182L1587O7458H7925
356065C6861k3280j3387R308K702o679p400J1831j4717M957p842O345m064J5508i58
357153e702J1198q87m785Q470j4528O903j79J120m42M542p586K0446k0225J0292H133
358314D676P872J1095j209m814J826P081L1504P4721m0031m7885l4357N46L329A6670
359402c43K230q810P008L921Q231k0406J9605j7294N041k894L60Q324q876K479C916
360563a134M927Q399q083n236l004J0290n636L429Q197q038O489J826Q19K62J5173C7885
361796F4199N5796l1442m0726k7411j3095O938K24l058q735N743q326j0597J1057B581
362885B929k958K32L873J353p377l252J1116j7526J2664j673J792k810j496J272h740
364045d726P056J855j3063J1458L513N54j388q044o129J3303j1525j780K153O492B408
365206F336j4783P684K022r139J4794j6496J1416o321L8K399o651J0846o07K589g024
366367b251L499r851J6244n117r667L432J20N902j706r121O433O845j1882p16g022
367528E429k113N120j0110k135P202j298K231p86n330L100l709N027J791j2530h513
368688H07m156m114P440p768P256P970k165J4845k0493K782J588l949O301j2056F499
369849e370l799J6074j1195K722m3M050j911p083N319l478J1908n488j921J310D736
371010B392n161J94j736O406K055j344r250J2417j4319J5120O441p629j66N191g958
372171b690N331l632o93P568N73o921q441K354K667P245l385J055l957Q66K932E609
373404f464N301q452J0844J718l337J1802m152k903L012k972O11r407J0212O768A9776
374565h740Q142l137J250L186j0147R486L635m722k573K355k449l686j832Q513a991
375725b715L069K699n163R58M623J596k641o713J3436j9364J0322J415j0829P507g427
376886a96j663K222j3221J896R38J0082n034R57m099L916J5692j9050R101O252a1553
378047a0119J3118K377j1401R960j79p477P924k4303J8208r498K665L260N944d09
379135C788m92J585q782K632Q665r353N203M089K725n994q422L811J271J790P873A084
380369d949P393l156l419r61O436J497J0185k524p025l680L421j1893L257M521a642
381529a4941K698J3924p6K732p44M541k862l155J502m921N335o125O102k250n494F655
382763D125k607J05R117j0755n029Q655M2M144j7976j200J5564q715M201p410g242
383923C452k267o177P528q118P417k628j52j939J3531l046q971L190k001j198F793
385084b674o095M967J3891j1100m62j777J055l728Q76q6j051Q634j0826J1968h48
386245g328J836J2571n712J395N34q040K904J73k695m15l638J0802o537J555k913A381
387478d590p20l451J2508Q935k0078M365Q859j107m412l330o14K037j791n603G432
388639b826J777l705M111q31J1122J889j6943j894M906m815M282K211J1682q707B002
389800e270M397N469j3450J004J0061m081K054k505p037P687m685J0531j2640G027
390888b358J107k293j303J1295q135j639O527p410M540J901o243L55l432L108B10
392049E05m354O325j5729P054k008l297O110O250L140L876j3593j725M865k406a9022
393210b992L128p184P109o270J988J7333j7839j0046K2416m353j970o910N062G522
394298E950k133j538r86m831L271j157l374P877j330J975j3503O269K622n811a1772
395458a425J0629q999M250O00j997q802J3034j399m974j857K259L001k228k675a219
396619h351J728m73n430P933P802j7377J4971J448R26K624j6229J3511q987N865a5959
397780D163j923m71o437q096P082J0875m062K085N011j6408k105M603Q822p482A850
398941i890M848P717K420r776N527j6063J8042k410k609K975r088Q986k009j661b324
400102f273L08k841J152P792j390Q573q908K751M039p434O913j5749R916J460c922
401262A397K885M74k763R16L264N735j5315J0748p392P564k473j066j3310J3604D961
402423e278J805J0432J888j2152J7224j4531J29M5R19q243M541j135l109J3087A513
403584a191m930k11J0008m952j0352R267l229J3185J111j2331M683J0233j7356B008
404672E537q459J366N026j1769O655j0142K3495n147j168n099k482O831n584Q216c615
405833a447L587m290m616J2917J265j2935P499k122K454n274L68R442j4342k991D943
406994d007J1714j5089Q465o949J4062j0742R836j8385J3528j2024J612R658p261B515
408082A990r729J2561o355R797l898l271J381m32n460n339J6155r506o05n750G956
409243f389P06N879m031J3831j2683J848M178m822R497o122M051K232j2456L766a1720
410403a673k805j66Q159M3l416J1400j4940j009J1566j5422J0599l716L370K852g223
411564h208L465N274r218J1119n359k9M24O739k263l567N174k573P910j3670P506G129
412797I915j2956m380J0116n665J0106o812n479m692O474m242J6310j1319L180D38
413886b710N913j880J635K51j0712K598R512l77P822j1353j0158L420L99R83k183h476
415119h365M546l881J0163j668K85l517m206J4268j6462N949K412Q031j1363N821e252
416280c774k378J2324j3362J2283p748N554P42L245j8J554j2600O555o568l722d515
417440b590l076J0109M562j3450m859O795j1145M489J5394n128J564j272m931a185
418529i069J0236o292J0607j0038O937j220k698l963L991m302J5219j4010Q594a564
419617f577O612J063l236J87K269m249N217J520m328N418o480M975K947o170j0282a416
420850A0062j5799L230n80O529o372R77N602l537M821k436N29o627Q694r614K552g074
422084E088p499M12L073K627n079K626R821r777k453k952P258n412M925j916K544c878
423317b675l117M383k188M191m010R82J785j169M656o520M988j240p472O338m235D17
424550c292M281P194j1112L505l073J874L085j0251J2503l068j832Q460n269n818E263
425711C423r840J656J2651j4473N923p767Q930J010n599J0217j9042Q899J2794d344
426799C25j295j2629R026j985Q628q342J504K0490j6172K64N813n700K295O914G43
427960B293J178K473q285j05J957K231n853L113K765J50K377K057r755j320P037g091
429193a104k064O26j776K669K677J25j746j407P946j1457N967J4093j5244K322f395
430354d477L521q762M561J52O257J334k349Q151j2005P717K982m006J288m114I429
431515G829j036K069k219N620l440o399k653l258R36M808j87j1329k985R704Q265F355
432748a552L065j0868Q555R797p328J187l564O956j5535J4989Q52q080j07O461g341
433909a154N854Q336q624q412j787J367L767J2753q788j159P076j1995l522J0158D730
435070a217O851k091J338m774J170N112j303r529l525P87N381J290J597N294j0055g780
436303e659J4828j0460l995M169M063n763J3641K791j329r738l472J0904P720I485
437391A3129j890J0126J6762M8541Q3632L74206n0133m05532n8414j0022M163A5596
438334I553Q237r216j1613k8R81M872Q479k650m609j2271J5457j3952J0623J698A5233
439495F784J30o801j0429J1306M981j7390J0894J1964j1593j104j5265K1658j0968f640
440583B778k380k042Q644o737j83N410m165M905R092o195r434O353L562L572j9275a49
441817A3074j1673K884q4J878k168n794J153r99J0894j3586J1496l875j1724J0806b45
442977G681o358j2000K1653j1684N4j716R5o900N62J5851r476K462k683J0507d403
444138d603j716j552R380m501l763P964J0307l521M75k587l344J1558m268q603a50
445299a724j992K602m805r307K0915J820L558j3086K565j4076J4782K371N831F584
446387A576m938Q539n405M450j136j0561J3379L912j3388O262r528L824J48K29B239
447548E650j4075J2767m638l063q15J168M838q222L019Q012m236m459j078Q541E61
448709e686J905O249q180N569K916J088o917K163L280P20l235q23M784r419J1906A900
449942G332J797j1799j1718J3971o97L612l901r98Q373l480k142q189J1695o13E343
451103D383N302j6041M544N140l468J078Q954j4884O561j0341l789J2920o766h149
452191F776j9139J2327N276r309P580p539M923l475r854L700J9532j4062Q923f356
453279A565k655j628j317l459k534J0690n279k759L711M118J194J782m177k57a0406
454440i091K955L459p71o646P494J459M283k131n321N304j945m676O362J5372c519
455601E727L887r002j4959L2369k2306q114N152j04J1567K768q939m658M716o368a2436
456761G354p300k943k597L92k555q923O177R175M313j0412O068r103J3166p604B203
457922a676J842n988J2718q535m339N407q821J8623p659q351j247J2104k85r347D226
459083a4420K3510M506n388j514n876l142M525N060o589K393j11l456o807J4475h01
460244I309j1982k271P946r806P507m112L94n12l473N482P083j954p473N214o948e34
461477c50j811O526L916r590J2326j2455R193q069M57J0014j2589P562j7747J7454D988
462638A2747j7657J3008l664p03r108M496N707J734p982J490N530P488j9509J3355A3464
463799H01O274l277j504m103J1093m210k918n836O041n183Q405n791O555j5835B881
464959A889n826J526P555p058M656o730l040J0423L775p824m270r84m655J1955a1040
466120G057q428j871N219j588L867M070q738j505m455J0882J868j0983N603k103B911
467281A81r376O442M39P700O712j1844l443K377n697Q671j787J018K700N489k1780A4898
468514b573M087l639Q568P982j1629Q8J817j1405L801J396L686j303p847m106g212
469675D5K99l267J0969j2180J4002q749j067J981O218o887K933k95j306j3378C228
470836d045l833R180k292j490Q81L237k538p583N877J314Q263k423m106q616J6147E912
472069b129O56L263j0937Q738M105j418P947j6051Q895k800q8R767p91q075j616B73
473302b160J399l848K22O155j1146J1090l050J737L58q150J0983n799Q418j4491A310
474463F704j0142O787o19o121n376K3733j5924M419p67O041k404o118n510l072D681
475624B583L060o817r722K0520j8828J0183n741J3686n179o430K711m181N830C737
476712A4707j6614l669J417M453p65l46m664J2796l965m730M28k384O456j041a3319
477873C752j4836J422J176l22J3689j0010P994N185Q264j3257L760M053q324K694F11
479034e643K782J891j3128R333l207J1723l640q636K536k224J0044j0144P418A818
480122b038l265n530J3569l228R097q283p255N449Q107L540j1155K952j047K218F154
481283E593m817r632R531M164j2790m17O778Q241M572j2211j093l680J1291k214i08
482443F766o198n438J2990r275Q6n580J1700p797N97L995M628m56r021M893M451a777
483677B769n024l758O962K011L225l055m86j564M588k938l39R475J352j4390N519a01
484910f922k422N670o060J3644m524o086k300R799o780J3783q207L116j175N640A2588
486071E224j389j726n651o20R008k664q60o348N851k521p19J1001j766l178l172H02
487304a833J98K832o752N177k931r44j198M674K891q476O168l322K207N474J72c270
488537B119M321q073M495o067l236N200Q51k990k611R92J1641n532O127r400j810e332
489771D026J876K790j2047Q523J199j1922J7339j1836o729J172j2424K0159Q308A2057
490859c269L750J743r045J1850L865q515M755m125m739J2022o026L535M072j6656B133
492020h64K033K65k579J1536j1574R97j100p056J0344j799m656L536N25L917l126A6134
493253C551k113N083j4282R51K1338k5013J8499j1383j326N803M965n079k990c989
494341I76j640r632R161J0443m524n654J612r255P651K868l9q64j405m698o019i847
495575a398M259K869K292m761L11o612M350p342P517n832Q423L410o858m03Q8e632
496808A438J2964j7752K351j017R180l695m159p63p05R368o730n34j207k862L307H838
498041d460P767n913P139r8L628j6656O530L755o083n694J2172P628p349l544a066
499202h782J1720n840l833L902k671J1785j2257J0592o342r609J1080M388J124d399
500290E042l786p868J9503j6264N298K367j5088P046K57M297j751j515q483O296B323
501451A785p832O890L172J707q398J1944r851m806M774K131n005N322K192n222C284
502612A0773O961k915j1060K668j0844J5859j3557Q362o946J1293j9882J2275E082
503627a074J049j0798J4409n722J278o522J2615n630p12k915P931p365N416N49g124
504788c907k343N748K411l429L343p402j395Q199M735j0299Q025j0873l559J5503g144
505949a2392J4695q349K9J468J3874n588m022L592j3917N144k837J0281n674J827A1054
507110B738n127J5006j9221K389O51k639J2843M804q732o442N364r998J851k304A219
508270C312L36l517q638L334O679J7138j8570N129k0485K1009q509j439N623j244e592
509431h305Q183j2975J6564m490J909j718M542N161m896j2689J7801j815j6957A918
510519C81J2102r400m169R834j1832l122J7244j5904J671J560K392J0190p294e
511608g717J1898O33j8152P180K939J735O113j1092O396Q37N14p160Q906J946B408
512768E124n242m182p74J5217j3627m170R841j271N331p610j344N877J2933k3642g683
513929b445l299Q727P217j2660K150o399k872J1845q531n574P599O800n588k361d468
515090e391O048q76n248M274J1708j3812p774J1770q390k044O261M256j64M4p621d343
516323B292N27Q041j2747K387r150O753N749o011N223K52n197m132J1790q965b913
517484E06J88P338r142Q889p48q000k405j439l19M537J8148j0391O50j4063N719A3546
518717a135M89j297O382j736L999n73J02q052j1555Q770P346n20J59q740l319c558
519951c93J828k682m410J201j551j37J315m701R327j304m404R63J070P85K127B465
521184C062n321j496K14J1109o741P286o039J724k483j6627K0286J5539k1094A606
522272C445j3031o153N343P279r436R098N506l616R139n646k068Q875j3133K065a1168
523433c482j230k190R443N042n553l395J0776M306p905Q165j1272N95l124L95e81
524594g615L751m022L69p70L110k034J432O296j337N073m104P468j7263J5934b701
525754f518J2778o824J3418j628q140M187n321k024K380K7r007R705n620O66P242A959
526988A100O964L502j4998l578M761J316q926Q748j411M332k739k977P128j425f562
528149C003q980L210j519k886K618Q103J270Q174o584j7285J2863j5342L565J2032E692
529309C818L344n262J759n565Q175Q204j0039j1149J269L898K001P85j347J680i227
530470c764J5854j0006p266O512J068P333j4673J1793p254l840J3518k302j0305a0476
531558C510q006o77n607L420J2411j473O790j6135M909Q106j120j3827J4745j1272A101
532719d024m03J869p88L337N60K126m583m685Q56Q918j2365J0634l952j1190l067a0849
533952h11R990r627J1552k1038J1654q100K332M216j4k375P881k00J140r964N139D582
535186a272P894L861q318L740P69j3863J2349n938n657J0636j0809Q923m67m529i217
536346i270M925O1p95L907L147k880k4j915k39R645k915l199n944J414L549o027D330
537652d867J1456j3076Q268k122l583N395o426J755L53M408K190M887q466J001A131
538813H228q270N513N78M63K472j2100K26J53q106N934J6379j1868k126p63L312H101
540046b015j162J001m563P055k404K383M574j0332J1303j1000K972q75n155J539c474
541207c535L855l064L961j697j250k416Q74O110k456p604L264k73K37K220J420A1151
542440G547Q13k833m072M453j2693J3535j3370P082Q054j1827J680L331n529J2701a967
543601h065J3861j2714K604J377k02K402j1464R865M153n957Q407k377k687N833I614
544762h3k849p49j1188M406R849q801P844n978K999O864n822J1461p719N308l58A0243
545995B089k292l830o412P885P157q179p091Q048L299m856l197P443n639l832b527
547156e264o52R545O59m360n655P797J289r307J5303o221p655P782j0172K407A54
548317h85m172J1258j208O220p186L841J793p023n931m143r20Q112J944M309o827e737
549550B275K741q053K373O367n485L990M934r482O759r321J815M905m015j63m768B692
550784F979q829R082j674j612q445L72J448L778J077n817k403L091M269l606O133b056
552017B071j495k184k70l613L29O581L727j3274N728k196k121J035k897J4323H167
553178B894r816Q952k319J2435j2493k69j42N153k050l940J3276m746j0276J606a781
554338F103j2951O331O579k724r415J3001L99j982m176n506P123j2011P680n09b129
555499I762j412p129l186O433K448J449p169q532Q332L489l856M468L1n675K579b934
556732A0958j1264l755J253k003Q820q882N313N69p58k984P898l524M06j76N860D562
557966g449J3694o399Q421j2041J1672n261j361m481M651k431p03O893j1671q46b445
559127g936J2503o517K920q00r08L663J76K884m222K192p719n592J0377j2687f081
560287d737N019l651o284N380N701K561L056r821N723N829j2408J52O577N91n812B786
561521D4j1678J0983l918k919N072j0681N230k286Q265L32R491j9018l0R036J060c947
562754D436L895j4135J2778n629k911j218p448J0819P75J093m659p386J4844j582E87
563915d934O567m595M522K771q931R424r491Q438n047q549J2529m682j158M106A63
565075C756m30j0404M703N81n791k04L655R067q068J0629j1412J20J1927j7625D601
566236B203r160P985j611J86L340N482j3231O155j637M24P304j646J37m648j2617a3930
567470i901k524J1951O120j1053N990Q561o063l095P028o513m064N196l764l506A0487
568630D681N187r349o153J3790j1474K737p86l038K913m854K717N23O405J462E852
569791C294O52j811K285k050N279m164p074O667j24n260p611R515k384L769P784i840
571024H09n065J167R582o111o177k390J7513j939k609n118j1949N895O205L771h443
572185A783r212M013P016j4786J7261k842l418q299J3134R224q604r88l308l76c887
573346g862j93R869k086j517J967m7o474O584o216L245N075o930R26O643O715d049
574579D13M056j7590R469m725J308l94N745L885P792j5791L303Q46K666R243k070b153
575813A756j388O36j759L729n486J762J2216j4062O084r344k27K083n50N434n961c326
577046c854K974M922m57o246L066j931m664J7658j0205R57j5068P668J92M07P13D956
578279B185j0143O161O985l043P38p613J2704j4339P472M201n592K085k645n661E689
579440A41K140J817j6517J3787m904p61m981J2311q647p642K482J985J6589N885A0959
580601c718O745j1600l114Q624P5Q528j8042J6998r137Q395O924j0851l20p517c755
581761c510L539J3115j4880J2357J151j7842K548p043J0477R18K147j2707J2767f703
582850e486N238l387Q179R68o245M945l746k397O171m297N807o678J0318k0128E284
584010D71O35L442K331o904l972J2061r151J251O238o886M649j1231m410J4669a40
585171c186N008pm813M575n885K190L228j0549P028k25N238k608K904r324J657A948
586405a591p089J3234l704o676K117M882o244Q479n008K427J779M647m136M734b121
587565F46l671k8M125J588J513L629j3827N361o097L793n99Q380j0988l369N921C883
588799b118L971J0541K961l976r179n77o991O359m809R8L91j047N044q53M165I266
590032f491M318O898q406J0920m218j7430M903N868R013j115o964R239o356o91C693
591193F464k175o033J1267l952q796M264k663k731J3995j6287j573M148K888R304b043
592353F297p544k896K874j2780J3196k658n966m134J4979p224J3576o472o807e975
593442i244Q424o45O804m037p73k131k486k37Q363o788k515k600J1621o619q746F531
594675a914j3259J2422N059m286N069K727j0645j0758J5654M550L143q982l69C056
595763A59M499r215P768n364M345r94j4875J0537O69J0339j1033o538Q106k642b304
596924C459n213R588o784n687p139J7288l908p769N011l83M143r688J0004o772d819
598085B292N70o720M41N793k205l922L407P73K480j651n391P022J566q090O461F820
599318H133o98n473r15K597l965J98K16q780J3215m644P334o293J1160J5046J3816I2934
600551A81656K35924j55058j68919m8603j5435p070j1600o404r146K8673l618C167
601494D28N113m868Q193J791q802K32p226J6955n498k136m59q091J8284j6007h437
602655b512N331J039r560J922R444m58K62M330j1746M341K202j6723J8577m453A494
603816e1M85m042m516j947N338J3932m969J538J789o63o070q685K897j732J0198C327
605049e237O947j34q401R102L369Q28r694N430j391K199K947q994L416L226j1252E161
606283A775l054l807P095m139J0593j4070Q245N014o858K474o947R738q342K641i389
607443a434m977N970M830p746L958N817L130j7419N929O072k173J433K668q458a0609
608604f45o993O275p140R581j069j002N617n199p897N951l040L452l228M296r312c790
609837D188o516M31J0263l631l433N223J728q143q477L656Q61Om707O900J052f051
611071B579o604K36J3657j0602J80K534q15Q249j1709o018P260Q741p867M050b561
612232A075m411l752J6164n446m846L113n666n345L165k214m494Q591O427O988A96
613392g014J0756N08j022j848o254k713J0916k304K040r23N723l058M936q547D165
614553G597r328r944J788J1550N97O517q908J55m24J271k122n531P891K91K511B908
615786D818r978N047l904k510J4992l518P27j1514r458J4908M294n658m226j247e857
616947e965O483L519l494j903J462J876j249q609K147M228J0676j2654J5755p665B96
618108A2574m524j9927P843r23R892k167o072K855j0014K586J3223j0127J3157F199
619196B441j534q959L489j141O857L673j0649Q366l294K613n118R32l329M425C10
620357G041K437n995k590r822M284Q264Q214l34j1781J5851p853j807p940r408a552
621518a012J54m063l4J3771n090m497L850n199l233J3877k474j301p062O449N670C332
622751C08l817J622j560p228J0809M514p995n783O262J39k876p075J9619q103d683
623912b571N489n578M376M208j2994K826n600O933j0651P196J8942j0804j3443I96
625000D235J2018k1923R034j5331K6097j5555L374O014j2145m569J6583p958l184i379
626088I074j8938N908j61L710o295J2799o225m757J1238m848l253j3732K5231E396
627176F322N788j1949m760l028N536M89l852P820r961N174O14J663o236N703m142C828
628410a8070J4415o19R550n277o671M450j2252J3980k655P364j2144O127j734g508
629498g210J310k788m02N789J0021p719O146k237n933o619M974J5692j3497j344d561
630659G254m186j1555J0949j1325N193j742L033k216l3K805Q263j8975k276J6376c305
631819c262L981q854J479O741M036K654j0495K932N734q165J893M426j923o841A982
632980E92j1628O903J762o32O852m222j941p464N821R719j5594Q013N974K607E087
634141I225j3328q683M302Q473l003k341r424N428M108L572M921j1972J4110k534c189
635302B310q642J6437n619k677J796j2091l042M489q58N153P785j7476J3236o393A716
636463d433R582J54p077k65K299O67k920L721p01n99j05k034O321l121m862R382e4
637768B146R972j5608N646j0968Q774k923R66J977k392J0763l086j5330J4722B886
638857B334j3135O329Q228j0405M538P018o797J0068o899o609K487k185J0661B480
639945A314R353j2127J21o586J5255j4837J1358O863k896K224k0340P320P613b042
641033A160n338R600q502L965O205l509k071N225L786r986J264M171m858K416A63
642194f839J1463m843k099m488L308P173p12l653m780M38P546L658n984l498M164a924
643427B793O842q791N697J194o675q795J0268j863K310l443P76K938m640K225f10
644588A057o951J2147p096M782n971J075O562L24m761P161m153K82j4388j933c505
645749a605j962k247K620M931j772k938L430L997m856r005R269n070l862Q940B423
646909H020j204k989l092K326J1192k0476M287N376n592J185q613P693k671J2251A777
648070e562q195J2697j218L909j781J44K872m030M05k943m762O332r620Q343M909b768
649304a3880J0755Q129j7862l903J3380K310L469K031L696q136K848J0742j1527E403
650392a0510J830Q600j4209J6305m722p552M109k373K763J5707j4976r32O734B107
651480D220q742J4709j5709N214K384l573k387K272N243q794L217N845q29j2291A204
652641F085q849k358J295J1147p223m875j55J528O852p795O748l746k706K846D195
653801a781L095j0756N049K084m621J3334l037j0420o417N423J2388j1271J1644C904
654890c630k748J5921j0871K4o798k412J1209L496q698O549k555j077j899J4R027A013
656123A1852o367r632N008P567m055q571M047L338K223K00r824k392K1002q534C918
657284a3419J3166p051k036K515J0356q997J3154L242j9799J3827q52q96J199d102
658372a1611K1425r231N059r24O342r002R724j0459m539M098O236l631n978l72F052
659533g98j0217Q324p08l611R331n72L658k389m407O676R878j1773N096r622j422a423
660766E650j4792J6500q486N949n291P970k527M859j1584K523P632j1544O057b774
661854c309R545n710J885J380q509o541J6041n522J0045j5838J3564j3675L585a521
662943D472j1753M548m049J3330r49q465K008J395j221j2094J5869r581J311j422a632
664103I424l310j2986M291Q680j4350O599J694o251J8261j2801J3192j4071O647D959
665192g355Q554M666k262r52m897k455q358J3051J105k309l960M48l689J0051f20
666352d94L309Q532r989m224Q525l415O128m121L62J419j0510R481p876N736J858i916
667586A0140j2865J6236o658j352q76M598l78n015N817j3039J904J0728n876J881F521
668746A67J607n883M342l305q758K0436p736j1613J5064j879m226q934O922J0248d256
669907d683R491o681M877J0033n783n535K86q012O235J1318j1419p820N012m052e317
671068g11j322N983n161p14L227K764p350k641J2704M761j4027j349l236m717A617
672229a0292J0483P518j5569J0431J2142m700j2805M951l60o115L463l517J4099d23
673317B06M096K004j0564l648K253m501J3574j159M195j3168O474l402k228M684g60
674478f323m459J2551N213j3688P978j186K667l535L520m073P443p57l63j1731d885
675638c579j278%r54K084K060p05j0520J5591o857O159j468M680L628j4823R266A959
676872H23p775Q983n090j0440J1168o834k189J571J3130o18m086J0257r696k030b46
678032a648r864J6895L795j4884L357L420l903M035P43J445l777M349k961M528b415
679193A2460o588j3438K657M990o002o60M642K28k221Q729r000P235k2p638P561c101
680427d27J0692p864q856P883q806N733M122j731J099M288r4l123N960j9172Q411A081
681660e09Q196K145j452n467mM473j0523k639L21p89N252j0690M92J9431o047F679
682893b485P920M7K738r524O026p666K430m104l025J2484m337J431o338K632K729A652
684127g59O194J01r211J3478q845l975j111R129K408k0325J5002l979o21M347C124
685287a0530J2724n880Q489L828j0582Q473j0915Q210j192j0444O479l967N595f009
686375a3632J2038j078q82k685M565Q246m030K518l952o495L340R412l583o524b395
687536e861K605m542Q7J0207J401K156q784N408o494J0252j2841L815O437j0764E014
688697A2566j0425P243O861j4017k857m032O870j2835P695m932L839J498O649h21
689785b941n593J4734k364M05K87N945l924j1889N711O36J17l50n202n297Q003h978
691019A394M361r635M330M812j2279K89P517K146r240M000k128M321n434J9379F253
692179a054N98M660K912j7360J9608j0256j058P514j5904J2598J705r717N22j111G06
693340A965o49o387P210m823P353l913l510R869j7122J0061j1j0988R953j279E370
694501F97J390o015N520K737M022K255j1584P771j4517J7257r715J838Q637k985B658
695662d930J6606j0510j025o226N689o256K357N381r15n332j650J1872j1413N098E593
696822B848m812R98k929O327k72m634r004J6745j2230M914o965Q792l985N975d058
697983b800m216J3695o502o104J2150o485M107o666O805l500M919q704M090l485a210
699144E387l517j0047J3933k127j0615M22N026K459N485n611O909j0759j592M525b198
700305b744j011O267j591K286o752L743L985j2256J905o82J3172K699o022K936b620
701465g6N584j1080R025k95l432L757K070q04n553R012r525o572J6994j1464J3161E651
702699a960Q830o298m747P240k185n179P377j0497J4309q752P929j0695n729P256b360
703860a7821K5503n433J996R036o726k819j5742J3034p840P275J3628o541l096c816
704948d843k061K180o427P709P162K369o091K75O659o846K697j494J019n551N760e753
706181a864J2763J0916k8330l444J3110q175o354J2608n742P799o152j28p801a0117
707269a1126J838K588n086J7235j066M81m593N051j6735J7744r299N465j4529a366
708358b550J0121Q84o265q150O182j259J4288j3207K905m456L556m665M506j309A0622
709518F104m092Q556o884p642P540L536q834L02l300Q734n551l589P638Q7k69g207
710752a396L3n220Q38J0178l094j726m643J4878R5j1764M016O871j0575J1617d734
711912a74q0l821j619R374p306K443J2264k1518J7452p401j0671J8011o840N741C387
713073E681o56K136p834J733j3801R308M302l624J859p390R943l987o324M276b340
714234A252r868R144j78l643J101l64L858l31j877j2223R203J739k787J2043m252g157
715467h068K20J3406j133o154L661j0134J8532j4337J1999j0389O07J828j1476A207
716555F090j42O908L13r892k369J142n587Q814j1258n88P982J0798j5510K831I637
717716C820m237n558M147M417l725M54J313j0685J1003J2284j1662j577j2492a952
718804E696j1452L075K0170k1727L1L75J2944l501m446k092n670L575J2890j0538a1038
719965El748L160M578m937k006n33n982Q627r82J0955m837p056J145N854K456G44
721198a331K720k307n177P950O650K879j3529J468p049J2296m724m644O946p219b194
722359F564o364N073j2148L904p144P307l588n281K0632q454p021M461L102J1403A2084
723520i812R421O188o046m08P032j03r635p898j0569J1850L336O940l38M017q340g231
724753D076j1276J215M943q738Q096N003n469m786P679L062k831R9j277J2961A7487
725914G745r424l02l84j322m242K805P782j1223P128m255p300J0660Q99N060O983C276
727147I248r004J1429o315j2792q359J5411q459P057o375J0291o753r28j300L890c355
728308B751l496j446J747K708j2672K3624j4322m012q93O820L844j4671R061M15a0700
729469A178J0o703J4127p282l345n18o877R001j670l67M401K177q282P742o509h804
730702A891L765j436N156K444r330m791M374k366q265J364O028K78N100K241K217D961
731936g369Q007o97j3105O977O979J2445k4827J5929O12n498Q74M003j0085n087a114
733096A2166j6155J0614j1079q39K5m426P632n229O620K873L59j089k066J326e841
734257b355J011N680r067j066N434J1047j4848J3015j6657L078l349J5346L767h111
735345B801N469j2403J4009j4231K359q529J5974K064n021o294L064J6457j631A430
736434e846P020p239J5849j2904k605R835p829M563K204k790J0606j4075N692C415
737522c103m619J0072j0788R241r640N771n653N60P951k443l991J2375J818q348a0710
738683c790R491p742%n8Q497l19n529o923P410M563j0187J580Q107n451j9630f979
739916e371O814q172O73J7613q363j2089J2717q17k868m00J2204j9563N295j040d416
741077A1511j0546j0606q1N592J5579m255j0188O048p535Q616r673J2258j2603C66
742165a3249J6754Q36k443k60n914J4682N88q508p906j868K885J0520m801O44F566
743326B781p395o395Q447l955Q113q877J3711j2616R55K423J0882j2937K024K651A110
744486H216m413m803j450o191R060k40q358R063L977M138m820L530j5856p37J0215C887
745720I446j1842K729j859Q586n642j145o483j724Q964N944p534M102r373J134f224
746880a618o936R542O84r982R529K449k642p098P316P607j219k749q23o955K200D6
748114a2061Q235M840J932j295K586K001j975j901l634P631k591l422N035o895f882
749275h30L446l986J1644j1751J962R297p334o054l948J55k085Q422N906j0220F52
750435C155j0863l892N53J1585K02K323j2582N42M408P71j3762P312N883j967C375
751596a56L222j878o300L458J424N647r08K75p773L251P18Q544J081k329j3142H777
752829A6810r333p357Q178j6799K0112j4298K183O81n081k76J669K074l066q414d182
753990D809l500p76j75k491L94l149n65j252N742m084Q142M21K903l787l039n266A90
755296A566J285J578m932P853N237l343m997j894m307O28N873L845J77q482J0157F101
756529d59o9o151j086Q816O96L541n512j269O56P395j7147J8316j4188P156j152h33
757763A309l178j527J801j420Q256m676N816o367N933o371m44J026O653p365M010D684
758996C843Q29o724J0301j0289n070J2098k168l778K197l064J057L873J3285r891b930
760157f951L193O122q339J0255j630o444K525J1090j3608N195m070L694n707R806A549
761317h76r7L048K146n902K251m814P800L337j1096N290k079N766r550R70L749E950
762551D990j2348M352j2340Q109J3084j1052O367J0602j4465P381m750k039J854g636
763639d662j1280P306m068Q272J2325j547r362j632k535N878J0078o569M325r147A425
764800g219Q902P247o625Q52n370l234N70O635J885j0828L379N099J023o294o73D49
766033A3703j0896j51N376n585K915J489l770M933o700Q019J906j7036R802k346A506
767194h03J0178j5463Q370l275j259r985M52N901N959J0735p590n018J439j594b572
768355c52p207o91J326M358J652J91P871m650j814n14K976l644n522J2645j8649c289
769588a2618J1846M438n999J017N677n505k195J3309j2865Q262j3763Q370l144d132
770676C714o257l666J7126q099k479O011o443m575j346o270J8308m849J818L677I350
771837a719K993K649k498K28k939N522j4267J4429k672M298k36o494P81o781Q872D767
773070g381O235j0112L421j110R955j627k121M045J6826j8034K316p631J0719c942
774158a212J745L255m784k084m400J0601Q094j0326l131N353N723j4944J002N333A059
775319d688J886k44l261L544R772q142R504n599l590K602K36k959q39l410m064b742
776553i20M509M583n463j258n938J682Q734j1462O657j226K023m559l772K848e00
777713C809q29J962j3719K054M62j0305P025M79R119m450J1604p980r728J0931d529
778874i488L576M864j007J833l950L71J1450j0095J2080o260j0183P710P525q602H89
780035a047J3640P045j9464Q274L4L33k0826J4195l070K566p268J8299j5861J2651F393
781196D841p275j218J4249j4837M755l151N278k457p371R163q044O885j1456J9175A9818
782356A854Q223j1850j854O614j228n95r794J1450j4812N256M580j3601J9867a235
783445E650k633J370l021N75O194q824k548l058N28J8563j4743n569Q808m203d992
784605h669R014M067m183J0472j5367L528J430M229q009R075k052J972j0420O937c394
785766D635k379m216P834r422K459j949j691k703Q911n433N977l588r276P043b744
786927b169Q990j7483J1307j1172L207L670L973p180j819O223N785m955j1876e118
788015D18j055m564j05Q89P58J866j228p008K690O363M382j1238l6O112P708n492A885
789321h415J253L753P5j51Q119j3150k231J299R637k702k674J6152p352n177r017A373
790554a0872P348K426l026j84J4705j8645Q996J206j122j6143J2297P091l164a321
791642F273o096P46j2532J1754J077M645N651j2600J1183j8113J4835j7498M629E651
792731I361j4459Q980l754l551L569j1718K2851n062k1101R398M354n300M378b16
793819F680q965J255Q665p967n249k768R043L158J933J5897k1365L92R75l69n185a2068
795052f417Q365r480L959l30J0344j0492K276J1229r822j0253K0859l062k719G000
796140d894l981N635j606M728o590J1106j2194J1465n94n494J0277M100p541p327d247
797301A0524q671n550J388J0424o139q024m852Q719o551N711P070j817K619o074C263
798462A266k80m465M415N57L915l037J132j9246J6071K191p857m123Q59J0236d112
799623a6737J3328O58n447P150L447M389m100l674l42P795p91j6925J9569r005G762
800784E587n612R807r594K093L535o092N296r21q956J4635j5961O366J0372j7735f543
801944D014j6955K2226n994n889k753Q904k645j773k083P925R804j1826m584Q917a567
803105B232k985M114j694o388J529m719J4150p205o507L260m427m572O790R124i657
804266c838M257J518p785R322q33q790P499m04k746O028J738N871K222o613Q480A4216
805499E2882M4084o6251r328j1870j893l303P746j654r610K90P548j1090K527e591
806587g50j227R436j655q21k499j186j369o692L065k299R950j1953M979P198j1856e331
807821a750m539J630J5432q187n50o087O611k90k460P579O31p480K763l307k665E224
809054G947o01p280N867r808j95q63M410P420q695O31R082m688m336J045n736b010
810287d278P24k793j735Q782K464j268o409M766m08m681j107K955k537K526L170E725
811521f292Q07l294M956J895k542J680l333l688J3752K845j2984J3208q840L065C499
812681D265k766l528k416L724j1352M057N666l584J0670k974q178O761J842k420D376
813842A989L56k323j855p85M283r577M481J0864J034o569N843m529K793N78j946C285
815075c029O271N334j722o774n0k348J4212k3828J1875Q903p233l745L859L896c262
816236a0435R847p28J662k363M443o649m976P203M520j3569P858K323m969P197f235
817397B0k437p130K3666j2877K788n786K161R141q103j134j951j945P112N48K334A0689
818630C643L018r774J000J750N709q528J8875j2219j90j578m348m523R171q811E68
819791c396J393k510k6J1039j4503K646Q696n610O312r979n839J7866l125o668B082
820952c646K145J0291k88m232L175p179l738J1539q335r782J3793K385j3913j032I19
822113H083j5792J191L529n044J0724P771j5579l696O892j0471J0521O963K007C118
823201H189l243n344l358J815J4106j0847j37k605J2536p166n891K981p443L453i53
824362b534j370o285N126J1612l857p906R418n901k290M038p485N015R78p576e550
825522D564J0522j3050P32j1037k91M763O170j423j1035J2361j1059Q857J472E268
826611a066p501N485l871O468O368l318J73r899N774j991L785q083J04J7517j5301E766
827844B619k661o455M506O122l227l255k399k168k324N994l08R403Q668r928r300a3231
829077b776M703o224J2119o093m877m524J0389J216m342m95Q397p702k936J7826A728
830238C366L259q010N452o438J664%m360O33O503R288p741p899J0248l411m526b066
831471g33N427n522K193Q604j2131l355M710k644j392N561J0219j2596L158o480c362
832632g32Q676n432P531j3050M922L006O662j6762L636m695l625n606J5287P725B566
833793b720j914l989K36Q162Q2N206k716Q09J211j84j0359J7707r330p320J3119G66
835026i51k975P833j0767J2641o391J157R154j0285N278o459K138P848o445n49C762
836187d215k495M460n13m587O005m831L796R56j863N288j754O682J173j1241j757A0896
837420e152L63J009M803K981r098J844J4350j1592p084J2057p556J3018r352K216a802
838581a0053j224J5696J85M40N233j1805j2945J0685M975j816O669j7176N232C647
839669c087M826j2657P959L144k017j408P076j2356N881K894M885j2736j0349B416
840757H216j5366l646J2060N08j930j395L858r604K773J967O925K233K357j3446B857
841918D99R619j2439r386P787m624J3284j0193M312Q605j474j0539O789l474K677g763
843079G07o066Q887K075j988k063P18l82L112K79K417n279n424N717M125j1723b815
844312A93Q62r294l967K2659j1235j0458J8658p826j27m831J067j167L716J971e072
845473b517j61j711k361N835K15q531N962J865N953L661j6241R588J118J152k713b241
846706d066m084K737J2661o778k193q495J2865j2094N923j567N238o150N370P59C945
847867E34j991o575N497N744p619N330j191q167O146m95L267j185K386O16J470f37
849100A424Q14j289j1995M173N890R655k573j2073J2774l943J375n373K468R602c887
850261F188o965r899L625J3924m536M168K366j0783N916L253p094p289j385K832B546
851422h488J0630J384J076k732L56p058l341N579o274J0566n652M100J898P256a738
852583C443r534O69P623m472o500N353P660K862n940o964O056N200M541o259N161A1299
853816A2286j5007L005l992L146L732k517m786m327R827j973L671o998P740R25d384
854977a134O685j0282K856N987n058o835J7410k0118J316P919j936l764O986l560c842
856138d406P487JK578j279m399o525J4145j0018K345p314J0850M669o281n414h302
857298f80m311J641J709Q870j0293l661J0791j1609J0125j0865J1471n895P958c641
858387A1480j1521R655j3239J810Q49Q2N936j7402J2766k179n953J1488m87j1371C213
859547a777J7132j1528q975O929j966m213n915j17J3528o50M788N138q589j1703f244
860708c42j0364Q660k622N650M216L69p639j183j224M766O13j245J753O090K66C6
861941e118P505K178j536l039l26N125n779l079P396J203J733p287J691P68N90C216
863175A808J297L62p681j813J0938j37L39q972k89M980m223K914J2097k297j3032g212
864408A361r08n599J925K570M702o760K654q680Q753p226P422M29N514k443q488E723
865641D72k902p57j74Q223J736m342m128L771r164J2187o450K926j806l989K917A038
866875G846p027J014n487J098L305k498J92J352q792O831o098J265Q041L956M548a353
868108f49j3840J1767K719Q48m378l53M172j830m116o098J8229r818Q738o105F77
869269b312Q0m720L543P489m144n199N300J691l665J5255r146o605k859P627j4931a379
870502A0662q372p797N541M543p571p08p236K5125l559n851P62j752L540J834a314
871663G169r591N714r45q712J2211o839J4119k1054o77O890m350L169J114O050b268
872824a342L147K75q547O692N670n095o332K835Q220j958M99n875r993J5158n937F31
874057a0976K4375k120m148j2458n272J0308J1214m993o414L376R1k008l012n970D373
875218A412J440n386o830R494K723k052j4396J1596O477m502l328m199P758K993f043
876378D078j1271O877m287j506J014R239L068O93m442j2454J0591Q494j719j1555A434
877539a177j299j940O239n862J4486q465L102j5846L388O602q36K447p506J256b308
878700f913P824o092K243q68L551L706j750j954k549O60N738J665j3657J0864D73
879861f353N123o405N371M5J501K777l584k72K005L2J08l745l994J790O43R835E544
881167F04m545o2K817J023K688r071J2489j3771k213R359K136l925m774P759M219b
882400A0688r340j0579J6755m919p98N26j603Q393n389J495j627o188L442J674b86
883561H36J563L875m419J3025j5567L914m360l629Q242k409m310o20K354Q038g18
884721f664L656k949j225J7851j0653m348L836k393N438j06n56M799j0510k404d829
885882A423Q418l592J588m735L399j3235j736J2604n227J27j185J2134l893m595f252
887043e366P69J1106k993J230j5621J1002Q042q506p900P757l100q758R057k353b029
888204A839l922j708J568P153j637m011K999j433m170J0286q361j0584J0312K76A081
889364F617M81q818M217j964n205M267Q532m571K13K552j3187L287K041K610j617b414
890598F321m448L585n201m05l83J646R68q522K2801q953p587M480K980o579R846D212
891831b353J609j221N011J0959p077j4330J1694m906o595J5604p890n160O995h511
892919I50r24L018j5061Q156N598k253K468j0518R931R786n891j1021J3650j2219b124
894080A133k507M691j190o239J3951q532M402j248j798n988Q033l858p850R986C140
895241E748k747p26q283J917J872k281J0823K117o539J445j1675J7241p664m644C685
896402F100j0591M535J47o103J814j689P193L272j0196J0163k468K395j295j2556a342
897562a627O839j0967N055K807r606R714R433j5351Q364l675L356J892q196R62b131
898723e782J2477N32r147n16k842R139R38n198P51j613n989K211N704L00Q757A0636
899956A156l914r32J230J1401n145n272n134M647J0753j6032KQ93Q858q355N170C543
901190B914o693l710K363M352k887N822M254r456Q666r980O915R50L921j4244i297
902351B676j0279L549Q283P600j0720L57j140K844r29L328k55q779K278P468r415A547
903584b693K21J0723l971l065m565n59R588r734J4062j0653p219M995l781O169A138
904745F44L280m316q972K181J039L348J0419r97l762Q256j5007J3731p522n004I563
905905B242o404O58L241j075N089Q761n190j0728Q386k617J408o432L239N653C294
907066G128l055j629o91M856j3267n66Q645k717L103j6193J2074J7416j4373K252d130
908227b79j473N327M802o019r762p6M865N467l4K89o690L310j974J797M747L782d813
909533B287k385K605K029l453k64j1030J3008N25k122q41j876m899L558M878j2106A0680
910766F347n811L910N852j3529j84J3228l843j3117J6898j5501J442R699N077A282
911854G099n339J997Q19Q143j2743J402m008p870N717Q713L1O704m60m185n254C897
913088g836J2028q413O87L938L547j121n993K102N465m537p690J6144p676l56B997
914248b44K972o955Q65l65L629m092M794o933R006l942J468R43n439n071M525a0842
915482b22k0l259J711K030m323R146o572Q441K646m417k237m604R89J880o259C802
916715h43J182j481Q868n080o311R96n057P529m128j551K167N118n290J520N092C944
917948C890o113p564J3629n78m339j893J88J773J1781j0468P833j2214l093R945F549
919109I401k483n237q500J3475o640k044Q054K598j0485O624M870j2272j015J9764D43
920270b528r51K112M360K236o971o82P560n144l24M171l359j1685P877J131j739D3
921503e383P285k438N294j403M891j7175J3534q21l155N452k153j589M170j1564D101
922664c313J36O304l801j739O410j144J10m27j2843P457j65J296J0364r025j725E108
923897g237N978k281O896k022q49N973j3257K322N914k175K94Q315r589l302N982c869
925131E03n714M031k784m040J1214n393M304m794R239p655k171K187L656n160e476
926291G67Q194k738N07k195r75q849O283K75l948m484O556N645j445p447P929B290
927525f586J1434q261k352J2589j3577o440K4232K342j6808J0146L504j0522Q049e132
928613F719j3337K674O971q782N097M285k793K600j009J031o130k803R599m129D47
929774b227n216n009J4395j885j956O27N876j077m86o021K867n104L925m0N690E256
931007I366r869J484K44R263j0599l630J4153m385n454Q615r237P371m652m819h12
932168c814M581L868o177K211L843K418l559m584o276M643n823J0277O247r305c113
933328f257P233m525L911m063Q903m740L06M669K222j2902P662j506p837N252C357
934489f66j2129O984O878J086K237r079P86J0269m769j89J744l465M450o040M354a2272
935723I806q618K113L642q361j832M797n587L394k572N833j544M792q7M995j6147c881
936956A611J718K508o606l475K689K986k744N670J392k242l432O065K569r57j2650c752
938189D77K992j0515J0348k697o587k97h674
938770e749  $$checkpoint
##END=
